\ENCODING=ISO-8859-1
\Problem name: instances

Maximize
 obj:
Subject To
 c1: 882 x1 + 882 x2 + 833 x3 + 64 x4 + 587 x5 + 997 x6 + 96 x7 + 217 x8
     + 179 x9 + 772 x10 + 168 x11 + 114 x12 + 81 x13 + 573 x14 + 23 x15
     + 472 x16 + 141 x17 + 749 x18 + 596 x19 + 565 x20 + 7 x21 + 593 x22
     + 379 x23 + 288 x24 + 587 x25 + 365 x26 + 767 x27 + 949 x28 + 702 x29
     + 78 x30 + 215 x31 + 583 x32 + 959 x33 + 48 x34 + 646 x35 + 546 x36
     + 44 x37 + 742 x38 + 763 x39 + 223 x40 + 513 x41 + 931 x42 + 337 x43
     + 594 x44 + 503 x45 + 359 x46 + 65 x47 + 644 x48 + 108 x49 + 661 x50
     + 208 x51 + 115 x52 + 253 x53 + 586 x54 + 403 x55 + 840 x56 + 950 x57
     + 169 x58 + 788 x59 + 652 x60 + 246 x61 + 3 x62 + 234 x63 + 205 x64
     + 51 x65 + 880 x66 + 750 x67 + 94 x68 + 621 x69 + 513 x70 + 317 x71
     + 134 x72 + 443 x73 + 653 x74 + 727 x75 + 946 x76 + 12 x77 + 792 x78
     + 589 x79 + 119 x80 + 452 x81 + 797 x82 + 233 x83 + 705 x84 + 382 x85
     + 636 x86 + 544 x87 + 332 x88 + 804 x89 + 332 x90 + 984 x91 + 49 x92
     + 334 x93 + 217 x94 + 253 x95 + 384 x96 + 97 x97 + 3 x98 + 478 x99
     + 718 x100 <= 22608
Bounds
 0 <= x1 <= 1
 0 <= x2 <= 1
 0 <= x3 <= 1
 0 <= x4 <= 1
 0 <= x5 <= 1
 0 <= x6 <= 1
 0 <= x7 <= 1
 0 <= x8 <= 1
 0 <= x9 <= 1
 0 <= x10 <= 1
 0 <= x11 <= 1
 0 <= x12 <= 1
 0 <= x13 <= 1
 0 <= x14 <= 1
 0 <= x15 <= 1
 0 <= x16 <= 1
 0 <= x17 <= 1
 0 <= x18 <= 1
 0 <= x19 <= 1
 0 <= x20 <= 1
 0 <= x21 <= 1
 0 <= x22 <= 1
 0 <= x23 <= 1
 0 <= x24 <= 1
 0 <= x25 <= 1
 0 <= x26 <= 1
 0 <= x27 <= 1
 0 <= x28 <= 1
 0 <= x29 <= 1
 0 <= x30 <= 1
 0 <= x31 <= 1
 0 <= x32 <= 1
 0 <= x33 <= 1
 0 <= x34 <= 1
 0 <= x35 <= 1
 0 <= x36 <= 1
 0 <= x37 <= 1
 0 <= x38 <= 1
 0 <= x39 <= 1
 0 <= x40 <= 1
 0 <= x41 <= 1
 0 <= x42 <= 1
 0 <= x43 <= 1
 0 <= x44 <= 1
 0 <= x45 <= 1
 0 <= x46 <= 1
 0 <= x47 <= 1
 0 <= x48 <= 1
 0 <= x49 <= 1
 0 <= x50 <= 1
 0 <= x51 <= 1
 0 <= x52 <= 1
 0 <= x53 <= 1
 0 <= x54 <= 1
 0 <= x55 <= 1
 0 <= x56 <= 1
 0 <= x57 <= 1
 0 <= x58 <= 1
 0 <= x59 <= 1
 0 <= x60 <= 1
 0 <= x61 <= 1
 0 <= x62 <= 1
 0 <= x63 <= 1
 0 <= x64 <= 1
 0 <= x65 <= 1
 0 <= x66 <= 1
 0 <= x67 <= 1
 0 <= x68 <= 1
 0 <= x69 <= 1
 0 <= x70 <= 1
 0 <= x71 <= 1
 0 <= x72 <= 1
 0 <= x73 <= 1
 0 <= x74 <= 1
 0 <= x75 <= 1
 0 <= x76 <= 1
 0 <= x77 <= 1
 0 <= x78 <= 1
 0 <= x79 <= 1
 0 <= x80 <= 1
 0 <= x81 <= 1
 0 <= x82 <= 1
 0 <= x83 <= 1
 0 <= x84 <= 1
 0 <= x85 <= 1
 0 <= x86 <= 1
 0 <= x87 <= 1
 0 <= x88 <= 1
 0 <= x89 <= 1
 0 <= x90 <= 1
 0 <= x91 <= 1
 0 <= x92 <= 1
 0 <= x93 <= 1
 0 <= x94 <= 1
 0 <= x95 <= 1
 0 <= x96 <= 1
 0 <= x97 <= 1
 0 <= x98 <= 1
 0 <= x99 <= 1
 0 <= x100 <= 1
Binaries
 x1  x2  x3  x4  x5  x6  x7  x8  x9  x10  x11  x12  x13  x14  x15  x16  x17 
 x18  x19  x20  x21  x22  x23  x24  x25  x26  x27  x28  x29  x30  x31  x32 
 x33  x34  x35  x36  x37  x38  x39  x40  x41  x42  x43  x44  x45  x46  x47 
 x48  x49  x50  x51  x52  x53  x54  x55  x56  x57  x58  x59  x60  x61  x62 
 x63  x64  x65  x66  x67  x68  x69  x70  x71  x72  x73  x74  x75  x76  x77 
 x78  x79  x80  x81  x82  x83  x84  x85  x86  x87  x88  x89  x90  x91  x92 
 x93  x94  x95  x96  x97  x98  x99  x100 
End
